%chk=C4-2.out.chk
# scf(maxcycle=500,xqc) UwB97XD/Def2SVPP

Title: Normal single point calculation

0 1
C         -2.86758        0.44722        0.00000
C         -1.79758        0.44722        0.00000
H         -3.22425       -0.49878        0.35038
H         -3.22425        0.61679       -0.99445
C         -3.22425        1.22366        0.64407
H         -1.44092       -0.32922       -0.64407
H         -1.44092        0.27766        0.99445
H         -1.44092        1.39322       -0.35038
H         -2.86758        1.05409        1.63852
H         -4.29425        1.22366        0.64407
H         -2.86759        2.16967        0.29369
