%chk=CH4-modre.chk
# opt(maxcycles=300,modredundant) scf(maxcycle=300,xqc) UWB97XD/DEF2SVPP

Title: Modredundant geometrical optimization

0 1
C         -3.15635        1.18864        0.00000
H         -2.08635        1.18864        0.00000
H         -3.51301        1.45464       -0.97311
H         -3.51302        1.89838        0.71691
H         -3.51302        0.21291        0.25619

 B 1 2 F
 
 A 1 2 3 F

 Additional keywords
 
 More sections

--Link1--
%OldChk=CH4-modre.chk
%Chk=CH4.chk
%chk=CH4.chk
# opt(maxcycles=300,ts,noeigen,calcfc) freq scf(maxcycle=300,xqc) UWB97XD/DEF2SVPP

Title: transition state search and frequency calculation

0 1
C         -3.15635        1.18864        0.00000
H         -2.08635        1.18864        0.00000
H         -3.51301        1.45464       -0.97311
H         -3.51302        1.89838        0.71691
H         -3.51302        0.21291        0.25619

 Additional keywords
 
 More sections

