%chk=ethane.chk
# scf(maxcycle=500,xqc) UwB97XD/Def2SVPP

Title: Normal single point calculation

0 1
C         -3.21259        0.03174        0.00000
C         -2.14259        0.03174        0.00000
H         -3.56925       -0.86059        0.47056
H         -3.56926        0.07040       -1.00806
H         -3.56926        0.88543        0.53751
H         -1.78593       -0.82194       -0.53751
H         -1.78592       -0.00691        1.00806
H         -1.78592        0.92408       -0.47056
